c 33_3_checker_6cl.cnf
c
c field = 33
c formula set type = 3_checker_6cl
c
p cnf 6 18
62 
66 
68 
-71 
-60 
-72 
63 
67 
69 
-70 
-61 
-73 
66 
68 
70 
-63 
-60 
-72 
67 
69 
71 
-62 
-61 
-73 
66 
68 
70 
-73 
-62 
-74 
67 
69 
71 
-72 
-63 
-75 
34 
94 
124 
-155 
-4 
-184 
35 
95 
125 
-154 
-5 
-185 
94 
124 
154 
-35 
-4 
-184 
95 
125 
155 
-34 
-5 
-185 
94 
124 
154 
-185 
-34 
-214 
95 
125 
155 
-184 
-35 
-215 
32 
96 
128 
-161 
-0 
-192 
33 
97 
129 
-160 
-1 
-193 
96 
128 
160 
-33 
-0 
-192 
97 
129 
161 
-32 
-1 
-193 
96 
128 
160 
-193 
-32 
-224 
97 
129 
161 
-192 
-33 
-225 
